p cnf 4 5
4 -2 -1 0
-4 2 0
-4 1 0
-3 4 0
3 -4 0
c p weight 1 0.5 0
c p weight -1 0.5 0
c p weight 2 1.0 0
c p weight -2 0.0 0
c p weight 3 1.0 0
c p weight -3 0.0 0
c p weight 4 1.0 0
c p weight -4 1.0 0
c p semirings aspmc.semirings.probabilistic 0
c p quantify 1 2 3 4 0
c p auxilliary 4 0
